WARNING: for repeatability, setting FPU to use double precision
============================[ Problem Statistics ]=============================
|                                                                             |
|  Number of variables:         10841                                         |
|  Number of clauses:           83361                                         |
|  Parse time:                   0.01 s                                       |
|                                                                             |
c ============================[ Search Statistics ]==============================
c | Conflicts |          ORIGINAL         |          LEARNT          | Progress |
c |           |    Vars  Clauses Literals |    Limit  Clauses Lit/Cl |          |
c ===============================================================================
c Switched to VSIDS.
c Switched to LRB.
c Switched to VSIDS.
c Switched to LRB.
c ===============================================================================
restarts                  : 3638
conflicts                 : 755324         (7808 /sec)
decisions                 : 8020386        (0.00 % random) (82910 /sec)
propagations              : 151726453      (1568449 /sec)
conflict literals         : 29847610       (13.04 % deleted)

conflicts w/ DIP found    : 541064         (71.63 % of conflicts)
conflicts w/ dangerous DIP: 0              (0.00 % of conflicts)
conflicts w/ DIP-learning : 77             (0.01 % of conflicts)
decisions on ext vars     : 2716           (0.03 % of decisions)
total ext vars            : 41          
tried delete ext vars     : 0           
deleted ext vars          : 0           
max ext vars              : 41          

Memory used               : 110.00 MB
CPU time                  : 96.7366 s
DIP computation time      : 4.26094 s (4.40 % of total time)
ER_sel time               : 0.821547 s
ER_add time               : 0.000299 s
ER_delC time              : 0 s
ER_delV time              : 0 s
ER_sub time               : 1.08424 s
ER_stat time              : 0 s

SATISFIABLE
